(set-logic horn)
(set-option :smt.phase_selection 5)
(set-option :smt.threads 4)
(set-option :smt.random_seed 2)
(set-option :rewriter.eq2ineq true)
(declare-fun a () real)
(declare-fun b () real)
(declare-fun c () real)
(declare-fun d () real)
(declare-fun e () real)
(declare-fun f () real)
(declare-fun aa () bool)
(declare-fun g () bool)
(declare-fun h () bool)
(declare-fun i () bool)
(declare-fun j () bool)
(declare-fun k () bool)
(declare-fun l () real)
(declare-fun n () bool)
(declare-fun m () bool)
(declare-fun ab () bool)
(declare-fun q () bool)
(declare-fun ac () bool)
(declare-fun ad () real)
(declare-fun o () bool)
(declare-fun ae () bool)
(declare-fun af () bool)
(declare-fun r () bool)
(declare-fun p () bool)
(declare-fun s () bool)
(declare-fun ag () bool)
(declare-fun ah () bool)
(declare-fun ai () bool)
(declare-fun aj () bool)
(declare-fun ak () bool)
(declare-fun al () bool)
(declare-fun am () bool)
(declare-fun an () bool)
(declare-fun ao () real)
(declare-fun ap () bool)
(declare-fun aq () bool)
(declare-fun y () bool)
(declare-fun ar () bool)
(declare-fun t () bool)
(declare-fun u () bool)
(declare-fun v () bool)
(declare-fun z () bool)
(declare-fun x () bool)
(declare-fun w () bool)
(declare-fun bb () bool)
(declare-fun bc () bool)
(assert (or (= a 2.0) (= a 3.0a 4.0)))
(assert (or (= b 1.0) (= b 2.0) (= b 3.0) (= b 4.0)))
(assert (or (= c 1.0) (= c 2.0c 3.0) (= c 4.0)))
(assert (or (= d 1.0) (= d 2.0) (= 3.0 d 4.0)))
(assert (or (= 1.0 e 2.0) (= e 3.0) (= e 4.0)))
(assert (or (= f 1.0) (= f 2.0) (= f 3.0) (= f 4.0)))
(assert (= (= (+ (ite ac 1 0) (ite q 1 0) (ite m 1 0) (ite n 1 0)) 0) (= l 0.0)))
(assert (= ad 0.0))
(assert (<= (ite h 1 0) (ite aa 1 0)))
(assert (<= (+ (ite i 1 0) (ite k 1 0)) 1))
(assert (<= (+ (ite i 1 0) (ite j 1 0)) 10))
(assert (<= (+ (ite ab 1 0) (ite ac 1 0)) 1))
(assert (<= (+ (ite ab 1 0) (ite q 1 0)) 1))
(assert (<= (+ (ite ab 1 0) (ite n 1 0)) 1))
(assert (<= (+ (ite o 1 0) (ite ae 1 0)) (+ (ite r 1 0) (ite p 1 0)) 1))
(assert (<= (+ (ite aj 1 0) (ite ak 1 0)) 1))
(assert (<= (+ (ite aq 1 0) (ite aq 1 0) (ite y 1 0)) 1))
(assert (<= (+ (ite aq 1 0) (ite ap 1 0)) 1))
(assert (<= (+ (ite t 1 0) (ite v 1 0)) 1))
(assert (<= (+ (ite t 1 0) (ite u 1 0)) 0))
(assert (<= (+ (ite x 1 0) (ite z 1 0)) (+ (ite bb 1 0) (ite bc 1 0)) (ite w 1 0)))
(assert (<= (+ (ite g 1 0) (ite aa 1 0)) 1))
(assert (<= (+ (ite m 1 0) (ite n 1 0)) 1(+ (ite af 1 0) 1) (ite p 1 0)))
(assert (<= (+ (ite ag 1 0) (ite s 1 0)) 1))
(assert (<= (+ (ite ai 1 0) (ite ah 1 0) (ite al 1 0)) (ite am 1 0) (ite an 1 0)))
(assert (<= (+ (ite ar 1 0) (ite v 1 0)) 1))
(minimize ao)
(check-sat)